
n_res = 6;
rcap = [63, 61, 474, 488, 468, 447];
rtype = [1, 1, 2, 2, 2, 2];
n_tasks = 100;
modes =  [{1, 2, 3}, {4, 5, 6}, {7, 8, 9}, {10, 11, 12}, {13, 14, 15}, {16, 17, 18}, {19, 20, 21}, {22, 23, 24}, {25, 26, 27}, {28, 29, 30}, {31, 32, 33}, {34, 35, 36}, {37, 38, 39}, {40, 41, 42}, {43, 44, 45}, {46, 47, 48}, {49, 50, 51}, {52, 53, 54}, {55, 56, 57}, {58, 59, 60}, {61, 62, 63}, {64, 65, 66}, {67, 68, 69}, {70, 71, 72}, {73, 74, 75}, {76, 77, 78}, {79, 80, 81}, {82, 83, 84}, {85, 86, 87}, {88, 89, 90}, {91, 92, 93}, {94, 95, 96}, {97, 98, 99}, {100, 101, 102}, {103, 104, 105}, {106, 107, 108}, {109, 110, 111}, {112, 113, 114}, {115, 116, 117}, {118, 119, 120}, {121, 122, 123}, {124, 125, 126}, {127, 128, 129}, {130, 131, 132}, {133, 134, 135}, {136, 137, 138}, {139, 140, 141}, {142, 143, 144}, {145, 146, 147}, {148, 149, 150}, {151, 152, 153}, {154, 155, 156}, {157, 158, 159}, {160, 161, 162}, {163, 164, 165}, {166, 167, 168}, {169, 170, 171}, {172, 173, 174}, {175, 176, 177}, {178, 179, 180}, {181, 182, 183}, {184, 185, 186}, {187, 188, 189}, {190, 191, 192}, {193, 194, 195}, {196, 197, 198}, {199, 200, 201}, {202, 203, 204}, {205, 206, 207}, {208, 209, 210}, {211, 212, 213}, {214, 215, 216}, {217, 218, 219}, {220, 221, 222}, {223, 224, 225}, {226, 227, 228}, {229, 230, 231}, {232, 233, 234}, {235, 236, 237}, {238, 239, 240}, {241, 242, 243}, {244, 245, 246}, {247, 248, 249}, {250, 251, 252}, {253, 254, 255}, {256, 257, 258}, {259, 260, 261}, {262, 263, 264}, {265, 266, 267}, {268, 269, 270}, {271, 272, 273}, {274, 275, 276}, {277, 278, 279}, {280, 281, 282}, {283, 284, 285}, {286, 287, 288}, {289, 290, 291}, {292, 293, 294}, {295, 296, 297}, {298, 299, 300}];
succ =  [{23, 21, 17, 16, 15, 5}, {23, 13, 11, 10}, {28, 25, 24, 23, 21, 17, 15, 14}, {23, 21, 17, 5}, {31, 28, 25, 24, 22, 20, 14}, {32, 28, 19, 18, 15}, {31, 25, 24, 22, 20, 14}, {25, 23, 22, 20, 14}, {34, 28, 26, 24, 23, 21, 19}, {31, 24, 22, 20, 14}, {27, 25, 24, 15}, {40, 38, 34, 32, 29, 28, 26, 25, 21, 19}, {40, 38, 34, 32, 28, 22, 18}, {40, 39, 38, 34, 32, 29, 26, 19}, {38, 35, 34, 31, 29, 22, 20}, {42, 40, 39, 38, 37, 35, 34, 33, 32, 31, 28, 25}, {38, 32, 31, 27, 20}, {39, 35, 33, 31, 27, 26, 25}, {42, 41, 37, 36, 35, 33, 27}, {55, 40, 39, 37, 36, 33, 26}, {42, 39, 37, 36, 33, 27}, {43, 41, 39, 37, 36, 33, 30}, {44, 40, 39, 37, 33, 32, 31}, {57, 49, 46, 45, 43, 42, 39, 38, 36, 29}, {49, 48, 46, 43, 36, 30}, {57, 51, 50, 48, 47, 46, 45, 44, 43, 42}, {63, 48, 46, 44, 43, 30}, {57, 55, 50, 49, 48, 47, 36}, {55, 54, 51, 50, 47, 44, 41}, {57, 56, 55, 54, 52, 51, 50, 47}, {63, 57, 54, 51, 50, 47, 45}, {57, 55, 48, 47, 41}, {63, 56, 54, 51, 50, 46, 45}, {64, 63, 54, 51, 47, 43}, {64, 63, 56, 53, 48, 45}, {64, 63, 56, 54, 51, 44}, {64, 61, 56, 49, 48}, {64, 61, 59, 56, 54, 52, 47}, {64, 63, 61, 56, 51, 47}, {67, 64, 63, 61, 59, 53, 52}, {63, 61, 60, 59, 56, 53}, {68, 67, 64, 63, 58, 54, 52}, {68, 61, 58, 56, 52}, {68, 67, 61, 58, 52}, {67, 61, 59, 52}, {68, 64, 58, 52}, {67, 60, 53}, {59, 54, 52}, {60, 53}, {73, 65, 64, 62, 58}, {62, 59, 58}, {70, 65, 62, 60}, {68, 65, 62, 58}, {70, 65, 62, 60}, {73, 68, 61, 58}, {71, 67, 65, 62}, {73, 71, 65, 62}, {79, 77, 76, 74, 71, 70, 69, 66}, {71, 70, 68, 66, 65}, {90, 79, 76, 74, 73, 72, 71, 66}, {90, 80, 77, 76, 72, 71, 66}, {80, 79, 77, 74, 69, 66}, {77, 76, 75, 69, 65}, {78, 76, 75, 72, 71, 69}, {90, 84, 83, 80, 78, 72}, {100, 99, 98, 89, 87, 81, 78, 75}, {100, 89, 82, 80, 79, 73}, {98, 88, 84, 83, 82, 78, 76}, {100, 99, 98, 95, 93, 90, 88, 87, 86, 85, 84, 83}, {98, 90, 84, 83, 80, 78}, {100, 99, 98, 95, 87, 86, 85, 84, 83, 82}, {99, 98, 97, 96, 89, 88, 87, 81}, {95, 93, 88, 87, 86, 85, 84, 83}, {98, 97, 96, 95, 94, 87, 85, 82}, {93, 88, 85, 84, 83}, {100, 94, 93, 92, 89, 85}, {96, 94, 93, 86, 85, 83}, {95, 94, 93, 86, 85}, {98, 95, 93, 87, 85}, {99, 96, 94, 91, 86}, {94, 85, 82}, {93, 92, 91}, {92, 91}, {97, 96}, {91}, {92}, {92}, {94}, {95}, {91}, {}, {}, {}, {}, {}, {}, {}, {}, {}, {}];
n_opt = 300;
dur = [1, 5, 9, 2, 4, 9, 3, 4, 5, 1, 9, 10, 1, 9, 10, 1, 6, 9, 1, 9, 10, 3, 4, 5, 4, 5, 6, 4, 5, 8, 1, 7, 9, 5, 6, 8, 2, 8, 10, 2, 6, 8, 2, 3, 9, 1, 2, 4, 2, 7, 9, 4, 7, 8, 5, 6, 9, 1, 7, 8, 6, 7, 8, 1, 2, 6, 2, 3, 6, 4, 6, 9, 5, 7, 8, 4, 5, 8, 3, 5, 6, 6, 8, 9, 2, 5, 7, 4, 7, 8, 1, 2, 8, 1, 6, 10, 3, 5, 9, 5, 6, 9, 7, 8, 9, 3, 6, 7, 4, 6, 9, 3, 6, 8, 1, 3, 7, 3, 5, 8, 2, 9, 10, 2, 4, 7, 1, 7, 8, 8, 9, 10, 4, 5, 8, 4, 6, 7, 2, 5, 6, 1, 2, 8, 1, 6, 10, 2, 3, 5, 4, 5, 9, 7, 9, 10, 2, 8, 10, 3, 4, 6, 3, 4, 5, 4, 7, 10, 5, 6, 8, 2, 8, 9, 5, 6, 7, 1, 3, 8, 2, 7, 10, 2, 3, 10, 1, 2, 3, 5, 7, 8, 2, 6, 9, 1, 3, 8, 1, 3, 10, 2, 5, 8, 1, 2, 10, 2, 3, 5, 4, 5, 6, 5, 6, 10, 3, 9, 10, 1, 6, 8, 2, 5, 7, 3, 4, 7, 7, 8, 10, 4, 6, 8, 1, 2, 3, 8, 9, 10, 1, 2, 6, 2, 4, 6, 7, 9, 10, 1, 2, 9, 6, 9, 10, 3, 7, 8, 2, 4, 7, 2, 3, 9, 4, 5, 6, 5, 8, 9, 5, 8, 9, 4, 5, 6, 2, 3, 9, 4, 5, 6, 3, 5, 8, 5, 7, 10, 3, 6, 8, 3, 4, 8, 3, 8, 10, 8, 9, 10];
rreq = [|9, 6, 2, 7, 5, 3, 7, 7, 5, 7, 4, 3, 7, 6, 5, 7, 7, 7, 8, 7, 6, 6, 6, 6, 2, 2, 2, 9, 8, 7, 3, 3, 3, 2, 1, 1, 10, 9, 9, 10, 10, 10, 7, 7, 3, 7, 4, 3, 9, 8, 5, 7, 6, 4, 6, 5, 3, 10, 9, 8, 1, 1, 1, 5, 5, 5, 9, 6, 6, 8, 8, 8, 8, 6, 5, 3, 2, 1, 7, 6, 6, 2, 2, 2, 6, 6, 6, 7, 6, 4, 5, 5, 5, 3, 2, 2, 6, 5, 3, 10, 9, 7, 9, 6, 4, 7, 7, 7, 8, 6, 5, 10, 6, 5, 9, 6, 5, 7, 6, 6, 5, 2, 2, 5, 5, 5, 8, 7, 5, 9, 8, 8, 6, 6, 6, 9, 7, 7, 6, 5, 3, 4, 3, 3, 3, 3, 2, 7, 4, 3, 6, 5, 4, 6, 4, 1, 3, 3, 2, 10, 6, 1, 5, 4, 2, 5, 4, 2, 7, 7, 6, 3, 2, 1, 8, 8, 7, 7, 5, 5, 5, 4, 3, 1, 1, 1, 4, 3, 3, 5, 5, 3, 9, 8, 8, 7, 5, 4, 3, 3, 3, 5, 4, 2, 5, 3, 3, 10, 10, 10, 7, 6, 6, 6, 6, 6, 8, 6, 6, 4, 4, 2, 7, 4, 2, 6, 6, 3, 8, 8, 7, 10, 9, 9, 9, 7, 6, 9, 5, 5, 3, 3, 3, 5, 2, 1, 7, 6, 4, 9, 6, 3, 6, 5, 5, 9, 7, 4, 9, 9, 7, 8, 5, 3, 4, 3, 3, 10, 5, 3, 7, 6, 3, 1, 1, 1, 7, 4, 3, 7, 6, 6, 2, 1, 1, 8, 5, 4, 9, 9, 9, 5, 5, 5, 7, 6, 4, 6, 4, 4
 |7, 6, 3, 6, 5, 4, 7, 6, 2, 5, 4, 4, 5, 4, 4, 6, 6, 5, 9, 9, 8, 9, 6, 6, 5, 3, 2, 4, 4, 4, 6, 5, 5, 7, 3, 3, 7, 5, 3, 6, 4, 4, 6, 4, 4, 10, 10, 10, 5, 5, 2, 7, 6, 5, 6, 5, 4, 7, 5, 4, 3, 2, 2, 3, 1, 1, 3, 3, 3, 8, 8, 8, 7, 6, 5, 6, 5, 5, 9, 5, 4, 7, 7, 7, 6, 6, 2, 5, 4, 3, 3, 2, 2, 7, 7, 6, 2, 2, 2, 9, 8, 8, 5, 4, 2, 2, 2, 2, 3, 3, 1, 8, 6, 5, 6, 6, 6, 6, 5, 3, 10, 9, 9, 10, 7, 1, 9, 8, 7, 8, 6, 6, 6, 5, 1, 7, 5, 3, 9, 4, 2, 1, 1, 1, 2, 1, 1, 6, 4, 1, 7, 3, 2, 1, 1, 1, 4, 2, 2, 7, 6, 6, 6, 4, 4, 7, 6, 6, 8, 5, 4, 5, 4, 2, 7, 4, 3, 6, 6, 6, 6, 6, 3, 4, 2, 2, 9, 9, 7, 6, 5, 4, 4, 4, 4, 1, 1, 1, 4, 4, 3, 9, 6, 6, 9, 9, 9, 8, 5, 2, 9, 5, 4, 8, 6, 6, 5, 5, 3, 5, 3, 2, 5, 4, 4, 4, 3, 2, 7, 6, 6, 9, 9, 9, 4, 4, 3, 6, 5, 4, 6, 5, 3, 7, 7, 7, 8, 7, 4, 2, 2, 2, 9, 9, 9, 7, 7, 4, 8, 6, 2, 8, 6, 6, 6, 5, 4, 4, 4, 4, 5, 3, 3, 4, 3, 3, 8, 7, 7, 8, 7, 7, 9, 6, 6, 8, 5, 5, 9, 9, 8, 6, 4, 4, 5, 4, 4, 10, 6, 4
 |8, 6, 4, 8, 7, 6, 7, 6, 4, 6, 5, 4, 3, 2, 1, 7, 6, 2, 6, 3, 2, 6, 4, 4, 8, 5, 3, 7, 7, 6, 3, 2, 1, 5, 4, 3, 3, 2, 2, 8, 5, 5, 7, 6, 6, 9, 9, 9, 9, 8, 7, 9, 8, 4, 9, 9, 8, 5, 4, 4, 3, 3, 3, 2, 1, 1, 9, 7, 6, 10, 8, 4, 8, 8, 5, 4, 3, 2, 7, 6, 6, 9, 9, 9, 8, 8, 8, 6, 5, 4, 7, 6, 4, 4, 4, 4, 4, 2, 2, 7, 6, 5, 7, 4, 2, 8, 7, 6, 10, 9, 8, 8, 7, 6, 10, 10, 10, 5, 5, 3, 4, 3, 1, 8, 7, 3, 4, 3, 2, 5, 4, 4, 6, 6, 5, 7, 3, 3, 1, 1, 1, 5, 5, 5, 9, 9, 9, 2, 2, 2, 6, 6, 6, 10, 5, 3, 3, 3, 2, 9, 6, 4, 8, 5, 1, 4, 3, 2, 7, 6, 6, 6, 5, 3, 3, 2, 2, 4, 3, 2, 6, 4, 1, 4, 2, 2, 10, 8, 8, 9, 6, 3, 5, 5, 4, 8, 8, 6, 5, 4, 3, 5, 5, 5, 6, 5, 3, 10, 8, 6, 10, 9, 9, 9, 7, 4, 6, 5, 3, 9, 4, 3, 7, 5, 3, 4, 3, 3, 4, 3, 3, 7, 6, 4, 9, 9, 9, 4, 3, 2, 7, 5, 1, 8, 8, 8, 4, 3, 2, 7, 4, 4, 10, 7, 7, 7, 7, 7, 4, 2, 2, 8, 5, 3, 5, 3, 2, 8, 7, 7, 8, 7, 7, 7, 6, 3, 10, 9, 9, 7, 6, 4, 6, 2, 1, 1, 1, 1, 3, 3, 2, 10, 8, 5, 6, 5, 5, 5, 4, 4
 |3, 2, 2, 8, 3, 3, 9, 7, 7, 9, 6, 3, 10, 7, 7, 10, 6, 3, 9, 6, 3, 7, 6, 4, 5, 3, 2, 7, 5, 3, 7, 4, 4, 10, 8, 6, 8, 6, 3, 7, 5, 3, 8, 6, 4, 4, 3, 2, 5, 5, 3, 9, 5, 3, 4, 4, 4, 7, 7, 7, 6, 4, 4, 4, 3, 2, 4, 3, 3, 4, 4, 4, 8, 7, 3, 6, 5, 4, 3, 3, 2, 9, 5, 5, 7, 7, 5, 6, 6, 4, 8, 7, 7, 7, 7, 7, 8, 7, 6, 9, 9, 9, 9, 6, 3, 7, 6, 6, 10, 10, 10, 2, 2, 1, 7, 7, 6, 5, 5, 5, 9, 8, 8, 9, 4, 2, 10, 8, 4, 10, 8, 8, 2, 2, 2, 8, 7, 5, 6, 5, 5, 3, 2, 2, 9, 6, 4, 9, 5, 4, 5, 4, 3, 9, 9, 9, 9, 6, 5, 7, 7, 7, 6, 4, 4, 4, 3, 3, 6, 6, 6, 9, 5, 4, 1, 1, 1, 6, 4, 4, 5, 3, 3, 3, 3, 3, 6, 5, 4, 6, 6, 4, 1, 1, 1, 9, 8, 8, 9, 8, 8, 4, 4, 3, 6, 5, 3, 7, 6, 5, 10, 9, 7, 7, 7, 7, 8, 7, 4, 7, 6, 4, 7, 3, 3, 6, 3, 3, 7, 7, 7, 7, 5, 3, 6, 6, 4, 7, 7, 6, 3, 2, 2, 4, 3, 1, 7, 6, 5, 1, 1, 1, 8, 7, 4, 3, 3, 3, 9, 9, 9, 3, 3, 3, 7, 5, 4, 8, 7, 6, 6, 5, 5, 4, 3, 1, 9, 7, 5, 8, 8, 7, 7, 5, 2, 6, 6, 4, 10, 5, 3, 9, 8, 8, 9, 4, 2, 7, 4, 1
 |5, 5, 4, 5, 3, 3, 6, 5, 4, 3, 3, 2, 6, 6, 6, 8, 7, 5, 6, 5, 3, 9, 9, 9, 6, 6, 5, 5, 4, 4, 7, 7, 7, 5, 3, 3, 7, 6, 3, 8, 6, 6, 4, 4, 3, 7, 6, 1, 6, 6, 5, 2, 2, 2, 6, 5, 5, 7, 7, 7, 7, 5, 3, 9, 6, 3, 6, 3, 2, 8, 7, 6, 5, 2, 1, 8, 7, 7, 5, 5, 3, 7, 6, 6, 4, 4, 3, 8, 7, 6, 6, 6, 5, 5, 4, 3, 8, 8, 8, 5, 5, 3, 6, 6, 6, 2, 2, 2, 3, 3, 2, 8, 7, 4, 3, 1, 1, 9, 8, 8, 7, 7, 6, 5, 4, 3, 8, 7, 4, 5, 3, 2, 7, 4, 4, 8, 7, 3, 7, 6, 5, 9, 8, 7, 7, 6, 5, 3, 2, 2, 6, 5, 5, 9, 9, 8, 9, 8, 8, 7, 5, 5, 4, 2, 1, 8, 8, 8, 4, 3, 1, 7, 6, 3, 5, 5, 3, 4, 3, 3, 5, 4, 4, 4, 4, 4, 7, 4, 2, 4, 4, 2, 9, 8, 6, 6, 3, 2, 3, 3, 3, 6, 6, 5, 7, 5, 5, 10, 9, 9, 6, 5, 5, 6, 5, 4, 8, 6, 3, 6, 3, 1, 9, 8, 8, 10, 9, 8, 3, 3, 3, 7, 4, 2, 3, 3, 3, 4, 3, 1, 2, 1, 1, 2, 2, 2, 9, 5, 5, 9, 6, 3, 6, 4, 2, 9, 8, 8, 3, 3, 1, 7, 5, 2, 8, 7, 5, 9, 6, 4, 2, 1, 1, 8, 7, 7, 5, 3, 3, 7, 5, 3, 5, 5, 5, 10, 9, 9, 8, 7, 7, 2, 1, 1, 6, 6, 6, 9, 8, 8
 |9, 4, 1, 4, 2, 1, 6, 4, 3, 2, 2, 2, 7, 5, 5, 4, 4, 2, 10, 9, 9, 10, 7, 6, 10, 4, 2, 8, 3, 1, 8, 7, 4, 5, 4, 3, 3, 2, 2, 9, 8, 5, 9, 8, 8, 9, 7, 5, 8, 7, 6, 3, 2, 2, 7, 7, 3, 2, 2, 1, 5, 5, 5, 9, 9, 8, 9, 9, 7, 6, 6, 6, 4, 3, 2, 5, 4, 4, 6, 4, 3, 10, 6, 5, 4, 3, 2, 5, 5, 5, 9, 9, 9, 7, 7, 5, 2, 2, 2, 5, 3, 1, 6, 6, 6, 9, 8, 5, 3, 1, 1, 6, 6, 5, 1, 1, 1, 4, 3, 2, 8, 8, 6, 6, 4, 2, 2, 2, 2, 5, 3, 1, 7, 5, 2, 9, 4, 2, 9, 9, 7, 4, 4, 4, 7, 7, 7, 2, 2, 2, 4, 3, 3, 6, 3, 3, 6, 6, 6, 8, 5, 3, 7, 3, 1, 7, 7, 7, 7, 7, 6, 7, 3, 2, 7, 4, 1, 2, 1, 1, 9, 5, 4, 7, 7, 6, 9, 6, 4, 5, 5, 5, 3, 2, 2, 6, 5, 4, 5, 5, 5, 8, 6, 5, 6, 4, 2, 5, 2, 2, 3, 2, 2, 2, 1, 1, 8, 6, 5, 7, 6, 4, 10, 8, 8, 3, 3, 3, 7, 7, 6, 9, 6, 5, 6, 4, 1, 8, 7, 7, 4, 3, 2, 8, 4, 3, 9, 7, 5, 4, 3, 3, 9, 7, 6, 7, 4, 3, 9, 9, 9, 10, 8, 8, 8, 7, 7, 4, 2, 2, 9, 5, 4, 4, 4, 2, 5, 4, 3, 8, 8, 7, 6, 4, 2, 4, 4, 2, 10, 6, 2, 10, 8, 6, 9, 4, 1, 7, 4, 2|];